; SPDX-License-Identifier: MPL-2.0
; Copyright (c) 2026 The RIINA Authors.
; Auto-generated from 02_FORMAL/coq/termination/StrongNorm.v (8 validations)
; Generated by scripts/generate-full-stack.py
;
; Translation Validation for StrongNorm
; Layer 9: Verifies compiler backend preserves formal semantics.
; Each assertion checks source IR ≡ target code for a proven property.

(set-logic QF_LIA)
(set-option :produce-models true)

; IR node representation
(declare-sort IRNode 0)
(declare-sort TargetNode 0)

; value_strongly_normalizing: translation preserves property (matches Coq: Theorem)
(declare-fun source_value_strongly_normalizing () Bool)
(declare-fun target_value_strongly_normalizing () Bool)
(assert (= source_value_strongly_normalizing target_value_strongly_normalizing))

; fst_terminates_to_value: translation preserves property (matches Coq: Lemma)
(declare-fun source_fst_terminates_to_value () Bool)
(declare-fun target_fst_terminates_to_value () Bool)
(assert (= source_fst_terminates_to_value target_fst_terminates_to_value))

; snd_terminates_to_value: translation preserves property (matches Coq: Lemma)
(declare-fun source_snd_terminates_to_value () Bool)
(declare-fun target_snd_terminates_to_value () Bool)
(assert (= source_snd_terminates_to_value target_snd_terminates_to_value))

; if_bool_terminates_once: translation preserves property (matches Coq: Lemma)
(declare-fun source_if_bool_terminates_once () Bool)
(declare-fun target_if_bool_terminates_once () Bool)
(assert (= source_if_bool_terminates_once target_if_bool_terminates_once))

; let_terminates_once: translation preserves property (matches Coq: Lemma)
(declare-fun source_let_terminates_once () Bool)
(declare-fun target_let_terminates_once () Bool)
(assert (= source_let_terminates_once target_let_terminates_once))

; handle_terminates_once: translation preserves property (matches Coq: Lemma)
(declare-fun source_handle_terminates_once () Bool)
(declare-fun target_handle_terminates_once () Bool)
(assert (= source_handle_terminates_once target_handle_terminates_once))

; app_lam_terminates_once: translation preserves property (matches Coq: Lemma)
(declare-fun source_app_lam_terminates_once () Bool)
(declare-fun target_app_lam_terminates_once () Bool)
(assert (= source_app_lam_terminates_once target_app_lam_terminates_once))

; store_ty_extends_refl: translation preserves property (matches Coq: Lemma)
(declare-fun source_store_ty_extends_refl () Bool)
(declare-fun target_store_ty_extends_refl () Bool)
(assert (= source_store_ty_extends_refl target_store_ty_extends_refl))

; Verify all translation validations are satisfiable
(check-sat)
(exit)
